Version identifier: 22.1.0.0 | 2022-03-09 | 1a383f8ce
CPXPARAM_Threads                                 1
CPXPARAM_MIP_Strategy_VariableSelect             3
CPXPARAM_TimeLimit                               599.999974769
1 of 1 MIP starts provided solutions.
MIP start 'm1' defined initial solution with objective 1.0000.
Tried aggregator 1 time.
MIP Presolve eliminated 23 rows and 0 columns.
MIP Presolve modified 12 coefficients.
Reduced MIP has 1202 rows, 2500 columns, and 37875 nonzeros.
Reduced MIP has 2500 binaries, 0 generals, 0 SOSs, and 0 indicators.
Presolve time = 0.02 sec. (19.14 ticks)
Probing time = 0.00 sec. (4.56 ticks)
Tried aggregator 1 time.
Detecting symmetries...
Reduced MIP has 1202 rows, 2500 columns, and 37875 nonzeros.
Reduced MIP has 2500 binaries, 0 generals, 0 SOSs, and 0 indicators.
Presolve time = 0.03 sec. (20.12 ticks)
Probing time = 0.00 sec. (4.56 ticks)
Clique table members: 496.
MIP emphasis: balance optimality and feasibility.
MIP search method: dynamic search.
Parallel mode: none, using 1 thread.
Root relaxation solution time = 0.04 sec. (43.23 ticks)

        Nodes                                         Cuts/
   Node  Left     Objective  IInf  Best Integer    Best Bound    ItCnt     Gap

*     0+    0                            1.0000     2500.0000              --- 
      0     0      100.0000    95        1.0000      100.0000      695     --- 
*     0+    0                          100.0000      100.0000             0.00%
      0     0        cutoff            100.0000      100.0000      695    0.00%
Elapsed time = 0.31 sec. (258.91 ticks, tree = 0.01 MB, solutions = 2)

Root node processing (before b&c):
  Real time             =    0.32 sec. (259.01 ticks)
Sequential b&c:
  Real time             =    0.00 sec. (0.00 ticks)
                          ------------
Total (root+branch&cut) =    0.32 sec. (259.01 ticks)
Primal:	100
Dual:	100
Status:	Optimal
Time:	0.32
Sequence:
	24
	1
	8
	20
	21
	21
	14
	19
	14
	21
	9
	14
	20
	23
	23
	14
	8
	16
	17
	8
	7
	16
	15
	0
	20
	3
	6
	6
	20
	8
	16
	10
	21
	22
	5
	14
	0
	19
	23
	2
	2
	20
	8
	12
	20
	8
	7
	20
	21
	22
	2
	9
	13
	12
	9
	2
	16
	5
	1
	19
	8
	13
	12
	22
	14
	12
	17
	13
	4
	12
	8
	23
	16
	2
	8
	14
	16
	1
	24
	18
	15
	15
	24
	16
	17
	5
	7
	1
	9
	3
	3
	11
	15
	1
	5
	23
	1
	23
	20
	1
